(set-logic QF_S)
(declare-fun var0 () String)
(declare-fun var1 () String)
(declare-fun var2 () String)
(declare-fun var3 () String)
(declare-fun var4 () String)
(declare-fun var5 () String)
(declare-fun var6 () String)
(declare-fun var7 () String)
(declare-fun var8 () String)
(declare-fun var9 () String)
(declare-fun var10 () String)
(declare-fun var11 () String)
(declare-fun var12 () String)
(declare-fun var13 () String)
(declare-fun var14 () String)
(declare-fun var15 () String)
(declare-fun var16 () String)
(declare-fun var17 () String)
(declare-fun var18 () String)
(declare-fun var19 () String)
(declare-fun var20 () String)
(declare-fun var21 () String)
(declare-fun var22 () String)
(declare-fun var23 () String)
(declare-fun var24 () String)
(declare-fun var25 () String)
(declare-fun var26 () String)
(declare-fun var27 () String)
(declare-fun var28 () String)
(declare-fun var29 () String)
(declare-fun var30 () String)
(declare-fun var31 () String)
(declare-fun var32 () String)
(declare-fun var33 () String)
(declare-fun var34 () String)
(declare-fun var35 () String)
(declare-fun var36 () String)
(declare-fun var37 () String)
(declare-fun var38 () String)
(declare-fun var39 () String)
(declare-fun var40 () String)
(declare-fun var41 () String)
(declare-fun var42 () String)
(declare-fun var43 () String)
(declare-fun var44 () String)
(declare-fun var45 () String)
(declare-fun var46 () String)
(declare-fun var47 () String)
(declare-fun var48 () String)
(declare-fun var49 () String)
(declare-fun var50 () String)
(declare-fun var51 () String)
(declare-fun var52 () String)
(declare-fun var53 () String)
(declare-fun var54 () String)
(declare-fun var55 () String)
(declare-fun var56 () String)
(declare-fun var57 () String)
(declare-fun var58 () String)
(declare-fun var59 () String)
(declare-fun var60 () String)
(assert (= var0 (str.++ var1 var2)))
(assert (= var2 (str.++ var3 var4)))
(assert (= var4 (str.++ var5 var6)))
(assert (= var6 (str.++ var7 var8)))
(assert (= var8 (str.++ var9 var10)))
(assert (= var10 (str.++ var11 var12)))
(assert (= var12 (str.++ var13 var14)))
(assert (= var14 (str.++ var15 var16)))
(assert (= var16 (str.++ var17 var18)))
(assert (= var18 (str.++ var19 var20)))
(assert (= var20 (str.++ var21 var22)))
(assert (= var22 (str.++ var23 var24)))
(assert (= var24 (str.++ var25 var26)))
(assert (= var26 (str.++ var27 var28)))
(assert (= var28 (str.++ var29 var30)))
(assert (= var30 (str.++ var31 var32)))
(assert (= var32 (str.++ var33 var34)))
(assert (= var34 (str.++ var35 var36)))
(assert (= var36 (str.++ var37 var38)))
(assert (= var38 (str.++ var39 var40)))
(assert (= var40 (str.++ var41 var42)))
(assert (= var42 (str.++ var43 var44)))
(assert (= var44 (str.++ var45 var46)))
(assert (= var46 (str.++ var47 var48)))
(assert (= var48 (str.++ var49 var50)))
(assert (= var50 (str.++ var51 var52)))
(assert (= var52 (str.++ var53 var54)))
(assert (= var54 (str.++ var55 var56)))
(assert (= var56 (str.++ var57 var58)))
(assert (= var58 (str.++ var59 var60)))
(assert (= var0 "solution"))
(assert (= "|" (str.at var31 977)))
(assert (= "|" (str.at var40 210)))
(assert (= "\\" (str.at var55 509)))
(assert (= "e" (str.at var14 750)))
(assert (= "r" (str.at var11 744)))
(assert (= "u" (str.at var27 954)))
(assert (= "7" (str.at var29 352)))
(assert (= "D" (str.at var45 181)))
(assert (= "F" (str.at var31 275)))
(assert (= "&" (str.at var58 7)))
(assert (= "u" (str.at var34 39)))
(assert (= "[" (str.at var1 568)))
(assert (= "n" (str.at var24 901)))
(assert (= "," (str.at var20 254)))
(assert (= "{" (str.at var25 326)))
(assert (= "#" (str.at var12 324)))
(assert (= "3" (str.at var6 938)))
(assert (= "b" (str.at var41 816)))
(assert (= "3" (str.at var24 574)))
(assert (= "." (str.at var18 178)))
(assert (= "V" (str.at var57 872)))
(assert (= "P" (str.at var23 77)))
(assert (= "M" (str.at var8 648)))
(assert (= "&" (str.at var28 571)))
(assert (= "1" (str.at var57 607)))
(assert (= "?" (str.at var37 533)))
(assert (= "0" (str.at var27 891)))
(assert (= "t" (str.at var57 211)))
(assert (= "p" (str.at var17 427)))
(assert (= "|" (str.at var9 446)))
(assert (= "^" (str.at var41 137)))
(assert (= "Z" (str.at var43 500)))
(assert (= "M" (str.at var38 895)))
(assert (= "O" (str.at var37 750)))
(assert (= "!" (str.at var43 259)))
(assert (= "z" (str.at var20 686)))
(assert (= "\\" (str.at var17 688)))
(assert (= "W" (str.at var48 147)))
(assert (= "P" (str.at var30 857)))
(assert (= "I" (str.at var11 634)))
(assert (= "|" (str.at var10 904)))
(assert (= "x" (str.at var11 567)))
(assert (= "0" (str.at var0 27)))
(assert (= "E" (str.at var58 850)))
(assert (= "`" (str.at var13 531)))
(assert (= "&" (str.at var44 823)))
(assert (= "d" (str.at var37 702)))
(assert (= "Z" (str.at var47 19)))
(assert (= "L" (str.at var19 973)))
(assert (= "4" (str.at var22 664)))
(assert (= "c" (str.at var11 104)))
(assert (= "/" (str.at var53 498)))
(assert (= "5" (str.at var51 623)))
(assert (= "A" (str.at var23 722)))
(assert (= "k" (str.at var15 419)))
(assert (= "4" (str.at var27 942)))
(assert (= "+" (str.at var37 305)))
(assert (= "e" (str.at var53 277)))
(assert (= "C" (str.at var17 15)))
(assert (= "g" (str.at var0 209)))
(assert (= "J" (str.at var8 750)))
(assert (= "8" (str.at var41 71)))
(assert (= "X" (str.at var8 765)))
(assert (= "\\" (str.at var48 920)))
(assert (= "," (str.at var10 227)))
(assert (= "F" (str.at var33 605)))
(assert (= "?" (str.at var47 254)))
(assert (= "/" (str.at var15 683)))
(assert (= "q" (str.at var56 605)))
(assert (= "%" (str.at var20 889)))
(assert (= "I" (str.at var17 179)))
(assert (= "s" (str.at var15 585)))
(assert (= "!" (str.at var30 654)))
(assert (= """" (str.at var60 429)))
(assert (= "s" (str.at var30 891)))
(assert (= "%" (str.at var57 82)))
(assert (= "j" (str.at var1 341)))
(assert (= "]" (str.at var8 818)))
(assert (= "$" (str.at var60 156)))
(assert (= "Z" (str.at var55 574)))
(assert (= "k" (str.at var22 532)))
(assert (= ")" (str.at var18 495)))
(assert (= "T" (str.at var8 898)))
(assert (= "Y" (str.at var14 932)))
(assert (= "E" (str.at var8 413)))
(assert (= "+" (str.at var34 83)))
(assert (= "O" (str.at var16 987)))
(assert (= "<" (str.at var45 17)))
(assert (= "'" (str.at var28 611)))
(assert (= "!" (str.at var47 555)))
(assert (= "I" (str.at var29 22)))
(assert (= "?" (str.at var12 823)))
(assert (= "N" (str.at var54 470)))
(assert (= "S" (str.at var26 537)))
(assert (= ";" (str.at var57 384)))
(assert (= "N" (str.at var20 894)))
(assert (= "w" (str.at var46 74)))
(assert (= "I" (str.at var5 875)))
(assert (= "," (str.at var1 124)))
(assert (= "R" (str.at var16 921)))
(assert (= "r" (str.at var60 729)))
(assert (= "q" (str.at var1 60)))
(assert (= "2" (str.at var43 7)))
(assert (= "3" (str.at var12 308)))
(assert (= "z" (str.at var14 335)))
(assert (= "F" (str.at var28 108)))
(assert (= "[" (str.at var55 953)))
(assert (= "D" (str.at var53 595)))
(assert (= "f" (str.at var40 487)))
(assert (= "s" (str.at var44 740)))
(assert (= "=" (str.at var1 866)))
(assert (= ")" (str.at var11 758)))
(assert (= "y" (str.at var14 919)))
(assert (= "j" (str.at var30 917)))
(assert (= "O" (str.at var57 998)))
(assert (= "V" (str.at var8 122)))
(assert (= "R" (str.at var38 229)))
(assert (= "Y" (str.at var26 912)))
(assert (= "r" (str.at var3 726)))
(assert (= "f" (str.at var45 257)))
(assert (= "r" (str.at var27 543)))
(assert (= "7" (str.at var29 667)))
(assert (= "6" (str.at var3 643)))
(assert (= "," (str.at var35 307)))
(assert (= "?" (str.at var35 47)))
(assert (= ";" (str.at var53 967)))
(assert (= "l" (str.at var51 850)))
(assert (= "V" (str.at var16 558)))
(assert (= "%" (str.at var24 18)))
(assert (= "?" (str.at var11 789)))
(assert (= "@" (str.at var9 905)))
(assert (= "?" (str.at var60 814)))
(assert (= ":" (str.at var55 928)))
(assert (= """" (str.at var56 214)))
(assert (= "(" (str.at var45 868)))
(assert (= "z" (str.at var40 437)))
(assert (= "2" (str.at var55 914)))
(assert (= "]" (str.at var16 545)))
(assert (= "g" (str.at var8 688)))
(assert (= "U" (str.at var56 422)))
(assert (= "f" (str.at var52 198)))
(assert (= "-" (str.at var5 805)))
(assert (= "E" (str.at var56 40)))
(assert (= "?" (str.at var0 541)))
(assert (= "0" (str.at var26 164)))
(assert (= "k" (str.at var12 416)))
(assert (= "-" (str.at var54 332)))
(assert (= "@" (str.at var59 780)))
(assert (= "O" (str.at var24 350)))
(assert (= "+" (str.at var23 454)))
(assert (= "p" (str.at var46 220)))
(assert (= "G" (str.at var13 788)))
(assert (= "|" (str.at var28 669)))
(assert (= "1" (str.at var30 535)))
(assert (= "?" (str.at var1 958)))
(assert (= "!" (str.at var47 243)))
(assert (= "G" (str.at var2 634)))
(assert (= "g" (str.at var30 653)))
(assert (= "~" (str.at var38 587)))
(assert (= "<" (str.at var58 151)))
(assert (= "u" (str.at var7 936)))
(assert (= "l" (str.at var21 863)))
(assert (= "<" (str.at var30 936)))
(assert (= "S" (str.at var20 31)))
(assert (= "f" (str.at var20 496)))
(assert (= ":" (str.at var59 87)))
(assert (= "@" (str.at var1 55)))
(assert (= "a" (str.at var4 180)))
(assert (= "f" (str.at var3 209)))
(assert (= "y" (str.at var22 244)))
(assert (= "d" (str.at var36 530)))
(assert (= "9" (str.at var9 49)))
(assert (= "J" (str.at var10 176)))
(assert (= "Y" (str.at var1 711)))
(assert (= "E" (str.at var39 248)))
(assert (= "S" (str.at var48 881)))
(assert (= "&" (str.at var22 833)))
(assert (= "`" (str.at var35 651)))
(assert (= "^" (str.at var22 554)))
(assert (= "{" (str.at var56 374)))
(assert (= "w" (str.at var30 115)))
(assert (= "=" (str.at var4 854)))
(assert (= "Q" (str.at var53 564)))
(assert (= "~" (str.at var24 323)))
(assert (= "}" (str.at var1 519)))
(assert (= "e" (str.at var17 234)))
(assert (= "f" (str.at var15 151)))
(assert (= "0" (str.at var27 879)))
(assert (= "=" (str.at var58 200)))
(assert (= "0" (str.at var29 108)))
(assert (= "A" (str.at var45 221)))
(assert (= "7" (str.at var54 567)))
(assert (= "d" (str.at var24 534)))
(assert (= "P" (str.at var29 523)))
(assert (= ":" (str.at var20 60)))
(assert (= "J" (str.at var40 949)))
(assert (= "}" (str.at var18 859)))
(assert (= "\\" (str.at var43 210)))
(assert (= "K" (str.at var14 659)))
(assert (= "6" (str.at var29 141)))
(assert (= "_" (str.at var17 239)))
(assert (= "V" (str.at var48 635)))
(assert (= "s" (str.at var21 797)))
(assert (= "%" (str.at var52 713)))
(assert (= "'" (str.at var53 177)))
(assert (= "r" (str.at var33 555)))
(assert (= "c" (str.at var23 130)))
(assert (= "J" (str.at var10 407)))
(assert (= "E" (str.at var51 537)))
(assert (= "{" (str.at var13 66)))
(assert (= "#" (str.at var46 912)))
(assert (= "s" (str.at var44 810)))
(assert (= "&" (str.at var13 308)))
(assert (= "F" (str.at var11 584)))
(assert (= "w" (str.at var7 519)))
(assert (= "R" (str.at var30 590)))
(assert (= "@" (str.at var8 849)))
(assert (= "#" (str.at var32 715)))
(assert (= "!" (str.at var29 606)))
(assert (= "T" (str.at var25 40)))
(assert (= "t" (str.at var59 811)))
(assert (= "r" (str.at var59 52)))
(assert (= "c" (str.at var25 329)))
(assert (= "K" (str.at var46 18)))
(assert (= "8" (str.at var19 210)))
(assert (= "E" (str.at var48 593)))
(assert (= "~" (str.at var34 143)))
(assert (= "?" (str.at var7 262)))
(assert (= "A" (str.at var33 517)))
(assert (= "s" (str.at var17 245)))
(assert (= "u" (str.at var43 461)))
(assert (= "@" (str.at var42 560)))
(assert (= "2" (str.at var20 885)))
(assert (= "q" (str.at var33 762)))
(assert (= "," (str.at var49 126)))
(assert (= "F" (str.at var22 595)))
(assert (= "j" (str.at var2 691)))
(assert (= "k" (str.at var55 594)))
(assert (= "{" (str.at var29 660)))
(assert (= "|" (str.at var45 786)))
(assert (= "7" (str.at var21 323)))
(assert (= "3" (str.at var20 581)))
(assert (= "5" (str.at var27 243)))
(assert (= "a" (str.at var23 169)))
(assert (= "3" (str.at var13 77)))
(assert (= "e" (str.at var1 6)))
(assert (= "9" (str.at var48 861)))
(assert (= "%" (str.at var30 885)))
(assert (= "a" (str.at var30 737)))
(assert (= "&" (str.at var39 705)))
(assert (= "X" (str.at var35 660)))
(assert (= "p" (str.at var38 135)))
(assert (= "1" (str.at var37 763)))
(assert (= "U" (str.at var57 588)))
(assert (= "f" (str.at var31 269)))
(assert (= "J" (str.at var10 323)))
(assert (= "P" (str.at var45 682)))
(assert (= "*" (str.at var48 984)))
(assert (= "w" (str.at var35 951)))
(assert (= "&" (str.at var6 198)))
(assert (= "j" (str.at var11 606)))
(assert (= "P" (str.at var27 75)))
(assert (= "f" (str.at var59 669)))
(assert (= "o" (str.at var16 824)))
(assert (= "D" (str.at var33 450)))
(assert (= "e" (str.at var26 874)))
(assert (= "8" (str.at var48 500)))
(assert (= "^" (str.at var52 69)))
(assert (= "\\" (str.at var33 17)))
(assert (= "x" (str.at var4 646)))
(assert (= "[" (str.at var14 188)))
(assert (= "S" (str.at var54 388)))
(assert (= "d" (str.at var43 898)))
(assert (= "8" (str.at var25 561)))
(assert (= "s" (str.at var14 579)))
(assert (= ";" (str.at var22 31)))
(assert (= "#" (str.at var26 113)))
(assert (= "?" (str.at var50 329)))
(assert (= "x" (str.at var19 683)))
(assert (= "F" (str.at var53 370)))
(assert (= "s" (str.at var44 455)))
(assert (= ">" (str.at var1 923)))
(assert (= "Z" (str.at var45 841)))
(assert (= "e" (str.at var31 637)))
(assert (= "&" (str.at var55 396)))
(assert (= "\\" (str.at var45 179)))
(assert (= "y" (str.at var26 234)))
(assert (= "f" (str.at var30 692)))
(assert (= "I" (str.at var42 41)))
(assert (= "c" (str.at var18 778)))
(assert (= "D" (str.at var20 140)))
(assert (= "~" (str.at var49 93)))
(assert (= "h" (str.at var55 649)))
(assert (= "<" (str.at var27 814)))
(assert (= "3" (str.at var45 200)))
(assert (= "@" (str.at var9 22)))
(assert (= "J" (str.at var54 980)))
(assert (= "{" (str.at var58 75)))
(assert (= "x" (str.at var43 593)))
(assert (= "p" (str.at var48 10)))
(assert (= "^" (str.at var23 48)))
(assert (= "u" (str.at var34 702)))
(assert (= "I" (str.at var31 395)))
(assert (= "T" (str.at var24 146)))
(assert (= "L" (str.at var1 431)))
(assert (= "L" (str.at var53 88)))
(assert (= "p" (str.at var47 930)))
(assert (= "s" (str.at var35 51)))
(assert (= "h" (str.at var43 487)))
(assert (= "." (str.at var38 261)))
(assert (= "U" (str.at var55 887)))
(assert (= "i" (str.at var32 965)))
(assert (= "4" (str.at var45 547)))
(assert (= "R" (str.at var24 109)))
(assert (= "5" (str.at var26 1)))
(assert (= "Q" (str.at var42 517)))
(assert (= "j" (str.at var60 304)))
(assert (= "r" (str.at var52 689)))
(assert (= "s" (str.at var29 849)))
(assert (= "7" (str.at var1 884)))
(assert (= "S" (str.at var45 715)))
(check-sat)
(get-model)